(synth-fun y ((x0 Int) (x1 Int)) Int ((Start Int (0 1 2 3 4 (+ Start Start) (- Start Start) x0 x1)) (StartBool Bool ((< Start Start) (<= Start Start) (and StartBool StartBool) (or StartBool StartBool) (not StartBool) (= Start Start) (= StartBool StartBool)))))
(declare-var x0 Int)
(declare-var x1 Int)
(constraint (or (not (and (<= 1 x0) (<= 2 x1))) (<= 3 (y x0 x1))))
(sketch y (- (+ x0 x1) 1))